NAME : traveling-santa-2018-prime-paths.28736.tour
COMMENT : Length = 28736
COMMENT : Found by LKH [Keld Helsgaun] Mon Jun 27 15:57:31 2022
TYPE : TOUR
DIMENSION : 100
TOUR_SECTION
1
26
56
70
11
65
64
84
2
36
89
33
98
38
25
85
79
90
22
68
23
27
39
7
53
17
9
48
31
46
12
5
52
35
78
16
10
73
4
82
18
44
97
28
81
54
63
96
8
37
51
55
86
41
95
58
72
67
62
29
92
93
15
21
94
83
34
45
80
77
100
3
75
69
47
14
61
71
66
42
76
60
57
13
24
59
30
19
32
99
88
49
87
74
91
20
6
50
43
40
-1
EOF
